(declare-const a Real)
(declare-const b Real)
(declare-const c Real)
(assert (= (* a b c) 1))
(assert (> a 0))
(assert (> b 0))
(assert (> c 0))
(assert (not (<= (+ (* -225254 (pow b 4)) (* -173798 (pow a 4)) (* (pow (+ (* 69372 (pow b 2)) (* 223976 b (pow a 3))) -1) (pow (+ (* 69372 a (pow b 2)) (* 223976 b (pow a 3))) 2)) (* -442368 (pow a (pow 3 -1)) (pow b (/ 11 3))) (* -221184 (pow a (/ 10 3)) (pow b (/ 2 3))) (* 769256 a (pow b 3))) 0)))
(check-sat)
(get-model)
(exit)